NAME = SAfile175,
TOURSIZE = 175,
LENGTH = 21774,
100,65,23,168,28,169,147,150,14,117,163,35,16,146,6,42,58,160,2,137,17,110,119,171,139,25,116,133,29,68,166,154,87,7,74,113,38,37,47,82,157,32,80,144,172,44,97,136,161,108,75,127,13,73,101,131,1,27,126,164,165,33,18,122,77,10,128,59,11,173,24,149,70,153,140,99,132,36,41,134,21,115,43,20,109,4,174,162,78,34,130,143,95,54,141,152,135,94,158,90,111,76,86,124,175,60,142,3,30,56,88,63,145,96,52,138,66,85,84,151,104,112,91,71,81,102,123,167,103,50,105,159,64,53,170,92,48,114,31,69,93,19,120,39,5,26,72,118,49,148,89,46,62,15,9,45,83,67,98,156,79,61,40,8,57,155,125,129,55,106,51,107,12,22,121